Minimize
  3 x_painkillers + 5 x_sleeping_pills
Subject To
  c1: x_painkillers >= 50
  c2: 0.3 x_sleeping_pills - 0.7 x_painkillers >= 0
  c3: 10 x_painkillers + 6 x_sleeping_pills <= 3000
Integer
  x_painkillers x_sleeping_pills
End